# Solution for model count
# Objective value = 9
z#1 0
z#2 0
z#3 0
z#4 0
z#5 0
z#6 1
z#7 0
z#8 0
z#9 0
z#10 0
z#11 1
z#12 1
z#13 0
z#14 0
z#15 1
z#16 0
z#17 0
z#18 1
z#19 1
z#20 0
z#21 1
z#22 0
z#23 1
z#24 1
x#24 341
x#23 917
x#22 0
x#21 64
x#20 0
x#19 17
x#18 2522
x#17 0
x#16 0
x#15 2125
x#14 0
x#13 0
x#12 2634
x#11 751
x#10 0
x#9 0
x#8 0
x#7 0
x#6 629
x#5 0
x#4 0
x#3 0
x#2 0
x#1 0
